c 1 ~  P0_k0 ~ 1
c 1 ~  P0_k1 ~ 2
c 1 ~  P0_k2 ~ 3
c 2 ~  P1_k0 ~ 4
c 2 ~  P1_k1 ~ 5
c 2 ~  P1_k2 ~ 6
c 3 ~  P2_k0 ~ 7
c 3 ~  P2_k1 ~ 8
c 3 ~  P2_k2 ~ 9
c 4 ~  P3_k0 ~ 10
c 4 ~  P3_k1 ~ 11
c 4 ~  P3_k2 ~ 12
c 5 ~  P4_k0 ~ 13
c 5 ~  P4_k1 ~ 14
c 5 ~  P4_k2 ~ 15
c 6 ~  P5_k0 ~ 16
c 6 ~  P5_k1 ~ 17
c 6 ~  P5_k2 ~ 18
p cnf 18 66
1 2 3 0
4 5 6 0
7 8 9 0
10 11 12 0
13 14 15 0
16 17 18 0
-1 -2 0
-1 -3 0
-2 -3 0
-4 -5 0
-4 -6 0
-5 -6 0
-7 -8 0
-7 -9 0
-8 -9 0
-10 -11 0
-10 -12 0
-11 -12 0
-13 -14 0
-13 -15 0
-14 -15 0
-16 -17 0
-16 -18 0
-17 -18 0
-1 -13 0
-2 -14 0
-3 -15 0
-1 -4 0
-2 -5 0
-3 -6 0
-4 -7 0
-5 -8 0
-6 -9 0
-4 -13 0
-5 -14 0
-6 -15 0
-4 -1 0
-5 -2 0
-6 -3 0
-7 -4 0
-8 -5 0
-9 -6 0
-7 -10 0
-8 -11 0
-9 -12 0
-10 -7 0
-11 -8 0
-12 -9 0
-10 -13 0
-11 -14 0
-12 -15 0
-10 -16 0
-11 -17 0
-12 -18 0
-13 -1 0
-14 -2 0
-15 -3 0
-13 -4 0
-14 -5 0
-15 -6 0
-13 -10 0
-14 -11 0
-15 -12 0
-16 -10 0
-17 -11 0
-18 -12 0
